scenarios/sols/small/emicp_milp/007.sol
objective value:                      1.9044434379822
x(0,2,1)                                            1 	(obj:0)
x(0,9,0)                                            1 	(obj:0)
x(1,4,1)                                            1 	(obj:0)
x(2,11,1)                                           1 	(obj:0)
x(3,8,1)                                            1 	(obj:0)
x(4,3,1)                                            1 	(obj:0)
x(8,0,1)                                            1 	(obj:0)
x(9,10,0)                                           1 	(obj:0)
x(10,0,0)                                           1 	(obj:0)
x(11,1,1)                                           1 	(obj:0)
xc(1,2)                                             1 	(obj:0)
xc(2,1)                                             1 	(obj:0)
xc(3,4)                                             1 	(obj:0)
xc(4,8)                                             1 	(obj:0)
u(0,1)                               1.19157275970727 	(obj:0)
u(2,1)                               1.70462054287831 	(obj:0)
u(3,0)                                1.9044434379822 	(obj:0)
u(3,1)                              0.356230207900274 	(obj:0)
u(4,1)                              0.270470565424822 	(obj:0)
u(5,0)                                1.9044434379822 	(obj:0)
u(8,1)                              0.534149079362874 	(obj:0)
u(9,0)                                0.9522217189911 	(obj:0)
u(10,0)                               1.9044434379822 	(obj:0)
u(10,1)                             0.469646812414899 	(obj:0)
u(11,0)                               0.4721763531455 	(obj:0)
u(11,1)                               1.9044434379822 	(obj:0)
u(12,0)                               0.3499568323474 	(obj:0)
u(12,1)                             0.167349481270898 	(obj:0)
u(13,0)                                0.755188730235 	(obj:0)
u(13,1)                             0.323474186311099 	(obj:0)
u(14,0)                             0.690558159768599 	(obj:0)
u(14,1)                               0.2492955601767 	(obj:0)
u(15,0)                             0.229320875303699 	(obj:0)
u(15,1)                             0.671138193030899 	(obj:0)
u(16,0)                               0.3967409820167 	(obj:0)
u(16,1)                             0.713648999509299 	(obj:0)
u(17,0)                             0.329484334042901 	(obj:0)
u(17,1)                             0.631489104299099 	(obj:0)
u(18,0)                             0.635693956960999 	(obj:0)
u(18,1)                               0.3357238598682 	(obj:0)
u(19,0)                                 0.86729416679 	(obj:0)
u(19,1)                               0.5563148944024 	(obj:0)
f(0,9,0)                                            1 	(obj:0)
f(0,9,1)                                            1 	(obj:0)
f(0,9,2)                                            1 	(obj:0)
f(0,9,3)                                            1 	(obj:0)
f(0,9,4)                                            1 	(obj:0)
f(1,2,4)                                            1 	(obj:0)
f(1,4,1)                                            1 	(obj:0)
f(1,4,2)                                            1 	(obj:0)
f(2,1,2)                                            1 	(obj:0)
f(2,1,4)                                            1 	(obj:0)
f(3,4,0)                                            1 	(obj:0)
f(3,8,1)                                            1 	(obj:0)
f(3,8,3)                                            1 	(obj:0)
f(4,3,0)                                            1 	(obj:0)
f(4,3,1)                                            1 	(obj:0)
f(4,8,2)                                            1 	(obj:0)
f(4,8,4)                                            1 	(obj:0)
f(8,0,1)                                            1 	(obj:0)
f(8,0,2)                                            1 	(obj:0)
f(8,0,3)                                            1 	(obj:0)
f(8,0,4)                                            1 	(obj:0)
z_r(0,)                               1.9044434379822 	(obj:0)
z_r(1,)                               1.9044434379822 	(obj:0)
z                                     1.9044434379822 	(obj:1)
